NAME : sample19
COMMENT : Sample dataset with 19 nodes
COMMENT : Derived from Zainab
TYPE : TSP
DIMENSION : 19
EDGE_WEIGHT_TYPE : EUC_2D
NODE_COORD_SECTION
1 23.456 45.678
2 56.789 32.109
3 87.654 76.543
4 12.345 67.890
5 90.123 21.098
6 43.210 54.321
7 65.432 23.456
8 34.567 87.654
9 98.765 43.210
10 21.098 65.432
11 78.901 12.345
12 54.321 78.901
13 87.654 98.765
14 45.678 34.567
15 67.890 90.123
16 32.109 56.789
17 76.543 23.456
18 12.345 98.765
19 89.012 45.678
EOF
